\ Model mip1
\ LP format - for model browsing. Use MPS format to capture full model detail.
Maximize
  4 C0 + 14 C1 + 15 C2 + 18 C3 + 29 C4 + 32 C5 + 36 C6 + 82 C7 + 95 C8
   + 95 C9
Subject To
 Fette_massime: 4 C0 + 14 C1 + 15 C2 + 18 C3 + 29 C4 + 32 C5 + 36 C6
   + 82 C7 + 95 C8 + 95 C9 <= 100
Bounds
Binaries
 C0 C1 C2 C3 C4 C5 C6 C7 C8 C9
End
